data;
param T := 15250;
param N := 26;
param W := 
[0] 6933
[1] 3914
[2] 6783
[3] 7474
[4] 5374
[5] 2144
[6] 288
[7] 3542
[8] 5992
[9] 9568
[10] 5914
[11] 6399
[12] 4864
[13] 8203
[14] 5014
[15] 5287
[16] 9708
[17] 3740
[18] 4110
[19] 1460
[20] 8729
[21] 1391
[22] 8823
[23] 5925
[24] 2948
[25] 5929
;
end;